p cnf 11 34
7 -9 10 -4 -8 1 3 -6 11 -2 0
-10 -5 4 1 0
-9 3 0
4 7 9 0
2 7 0
4 -2 6 0
6 7 0
9 8 1 -4 0
5 7 0
-6 -9 8 4 -1 7 10 2 -5 3 0
-3 10 5 7 -9 4 8 0
-8 -7 10 0
-3 -7 -1 0
-11 -6 5 1 0
7 1 -6 4 -10 0
-2 10 -3 -11 -9 -8 -5 -4 0
-8 -9 2 0
-2 -8 9 0
4 -1 -3 0
3 -10 0
5 -6 0
3 -4 -7 0
-2 -5 7 -1 0
3 -10 0
-8 6 4 0
3 -5 -9 8 0
-1 -4 8 0
9 10 0
6 11 5 7 0
-1 -6 -5 -7 0
-6 -5 10 -1 0
-11 -7 -9 -10 2 8 0
-2 3 4 -6 0
1 -7 3 4 10 2 -6 -5 -8 -11 0
